D = 2;
n = [ 2 2 ];
N = 9;
d = [1 1 1 1 2 2 2 2 2 ];
m = [
[1.00 0.02 0.36 0.62 0.31 0.90 0.97 0.69 0.52 ]
[0.02 1.00 0.12 0.98 0.77 0.90 0.98 0.59 0.92 ]
[0.36 0.12 1.00 0.42 0.55 0.31 0.37 0.68 0.92 ]
[0.62 0.98 0.42 1.00 0.39 0.90 0.70 0.70 0.45 ]
[0.31 0.77 0.55 0.39 1.00 0.79 0.98 0.32 0.25 ]
[0.90 0.90 0.31 0.90 0.79 1.00 0.84 0.68 0.37 ]
[0.97 0.98 0.37 0.70 0.98 0.84 1.00 0.45 0.41 ]
[0.69 0.59 0.68 0.70 0.32 0.68 0.45 1.00 0.20 ]
[0.52 0.92 0.92 0.45 0.25 0.37 0.41 0.20 1.00 ]
];
